&CONTROL
calculation = "scf"
etot_conv_thr = 1.0d-5
forc_conv_thr = 1.0d-4
disk_io = 'none'
tprnfor = .true.
tstress = .true.
pseudo_dir = '/opt/QEpot/SSSP_efficiency_pseudos/'
!controlend
/

&SYSTEM
occupations = "smearing"
nat = 8
smearing = "gaussian"
ntyp = 2
ibrav = 0
ecutwfc = 90
ecutrho = 1080
nosym = .TRUE.
degauss = 1.00000e-02
nspin = 2
!systemend
/

&ELECTRONS
startingwfc = "atomic+random"
mixing_beta = 2.0000e-01
mixing_mode = "plain"
!mixing_ndim = 4
mixing_mode = "local-TF"
!mixing_ndim = 4
electron_maxstep = 150
conv_thr = 1.00000e-8
startingpot = "atomic"
!diagonalization = "cg"
!electronsend
/

&IONS
ion_dynamics = "bfgs"
!ion_temperature = "rescaling"
!tempw = 0
!ionsend
/

&CELL
!press_conv_thr = 0.1
!cell_dynamics = "bfgs"
!cell_dofree = "xyz"
!press = 0
!cellend
/

K_POINTS {automatic}
ATOMIC_SPECIES
ATOMIC_POSITIONS {angstrom}
CELL_PARAMETERS {angstrom}
!End